
(set-logic ALL) 

(declare-datatype MyList ((Nil) (Cons (head Real) (tail MyList)) )) 
(declare-fun l0 () MyList) 
(declare-fun l1 () MyList) 
(declare-fun l2 () MyList) 
(declare-fun l3 () MyList) 
(declare-fun i0 () Real) 
(declare-fun i1 () Real) 
(assert (not (is-Cons Nil)) )
(assert (= l3 l3) )
(assert (is-Nil Nil) )
(assert (is-Cons Nil) )
(assert (and (= l3 Nil) (= l1 l2) (= l3 l3)) )
(assert (or (is-Cons l0) (is-Nil l3)) )
(assert (and (is-Cons l0) (= l1 Nil) (is-Nil Nil)) )
(assert (or (= l2 Nil) (= l1 l3) (= l2 Nil) (is-Cons l1)) )
(check-sat)
